100 100 100
50
87 28 91
81 49 84
80 48 74
10 93 69
33 81 67
86 81 74
66 30 100
43 9 4
30 100 100
21 20 48
22 93 82
53 83 71
76 79 3
58 90 84
89 29 78
79 46 97
76 27 85
98 43 67
86 49 82
68 37 87
77 32 70
80 18 98
80 87 3
64 52 94
25 4 46
77 30 85
9 20 13
38 80 90
71 21 69
92 32 84
8 17 22
96 23 95
69 18 86
88 7 69
68 32 91
88 73 71
95 45 68
91 27 95
100 25 88
91 92 46
80 83 91
92 26 74
89 38 81
96 10 78
100 17 68
71 15 81
40 76 78
100 84 87
68 11 85
78 40 95
